local_stuff/sygus_stuff/sygus_inv_oai/repo/z3/81.out
STDOUT:
(error "line 11 column 47: invalid function application, arguments missing")
(error "line 16 column 52: invalid function application, arguments missing")
sat
(
  (define-fun inv ((x!0 Int) (x!1 Int) (x!2 Int) (x!3 Int) (x!4 Int) (x!5 Int)) Bool
    true)
)


STDERR:
